Version identifier: 22.1.1.0 | 2022-11-28 | 9160aff4d
CPXPARAM_ClockType                               1
CPXPARAM_Read_DataCheck                          1
CPXPARAM_Threads                                 1
CPXPARAM_Simplex_Tolerances_Optimality           1.0000000000000001e-09
CPXPARAM_TimeLimit                               7200
CPXPARAM_MIP_Tolerances_AbsMIPGap                0
CPXPARAM_MIP_Tolerances_MIPGap                   0
CPXPARAM_MIP_Tolerances_Integrality              0
Tried aggregator 3 times.
MIQP Presolve eliminated 8727 rows and 269 columns.
MIQP Presolve modified 10689 coefficients.
Aggregator did 364 substitutions.
Reduced MIQP has 878752 rows, 334999 columns, and 2479878 nonzeros.
Reduced MIQP has 251092 binaries, 83907 generals, 0 SOSs, and 0 indicators.
Reduced MIQP objective Q matrix has 83907 nonzeros.
Presolve time = 8.81 sec. (4064.39 ticks)
Elapsed time = 50.03 sec. (10000.40 ticks) for 24% of probing (24875 vars fixed)
Probing fixed 24881 vars, tightened 25018 bounds.
Probing changed sense of 2400 constraints.
Probing time = 63.60 sec. (13610.35 ticks)
Tried aggregator 7 times.
MIQP Presolve eliminated 157208 rows and 49410 columns.
MIQP Presolve modified 2116 coefficients.
Aggregator did 12650 substitutions.
Reduced MIQP has 708894 rows, 272939 columns, and 2022585 nonzeros.
Reduced MIQP has 201544 binaries, 71395 generals, 0 SOSs, and 0 indicators.
Reduced MIQP objective Q matrix has 71395 nonzeros.
Presolve time = 21.29 sec. (9185.80 ticks)
Probing time = 0.35 sec. (71.26 ticks)
Tried aggregator 2 times.
MIQP Presolve eliminated 650 rows and 0 columns.
MIQP Presolve modified 5 coefficients.
Aggregator did 1 substitutions.
Reduced MIQP has 708243 rows, 272938 columns, and 2020631 nonzeros.
Reduced MIQP has 201543 binaries, 71395 generals, 0 SOSs, and 0 indicators.
Reduced MIQP objective Q matrix has 71395 nonzeros.
Presolve time = 3.55 sec. (1677.63 ticks)
Classifier predicts products in MIQP should be linearized.
Probing time = 0.34 sec. (72.63 ticks)
Clique table members: 1128667.
MIP emphasis: balance optimality and feasibility.
MIP search method: dynamic search.
Parallel mode: none, using 1 thread.
